687781
2,204,172,168,93,213,59,221,52,132,80,167,85,123,25,61,182,148,131,173,124,188,181,136,206,218,70,86,119,195,193,84,79,95,29,114,191,177,226,51,122,152,126,209,73,113,160,42,98,199,178,31,43,147,127,163,32,63,210,7,36,1,72,71,118,49,67,207,39,74,157,83,140,135,162,229,133,155,112,27,169,40,81,130,55,102,62,87,35,94,108,50,151,28,78,215,75,205,34,37,192,179,196,107,89,116,161,184,101,166,9,68,96,91,22,20,183,117,26,144,145,211,156,5,137,60,16,189,185,3,208,159,23,69,138,15,8,30,44,64,220,13,176,223,17,47,225,48,111,134,19,125,46,197,11,143,214,227,194,97,120,165,14,110,201,10,198,200,65,154,164,174,76,57,139,58,45,230,212,104,6,203,38,224,33,129,153,217,21,4,142,170,90,150,171,186,109,228,88,146,12,187,103,82,158,180,121,41,106,219,190,99,202,175,54,56,18,92,53,100,216,105,66,24,141,128,222,77,149,115,2